set VV := 0 1 2 3 4 5 6 ;
set VS := 0 1 2 3 4 5 6 7 8 9 10 11 12 13 14 15 16 17 ;
param cv := 
0 10
1 10
2 19
3 21
4 15
5 21
6 23
;
param cs := 
0 20
1 20
2 21
3 23
4 20
5 25
6 29
7 27
8 28
9 31
10 22
11 35
12 39
13 33
14 29
15 22
16 20
17 37
;
param bv:	 0 1 2 3 4 5 6 := 
		0 0 0 0 0 11 0 0 
		1 0 0 0 0 10 0 0 
		2 0 0 0 0 0 0 25 
		3 0 0 0 0 0 25 18 
		4 0 0 0 0 0 15 0 
		5 0 0 0 0 0 0 0 
		6 0 0 0 0 0 0 0 
;
param bs:	 0 1 2 3 4 5 6 7 8 9 10 11 12 13 14 15 16 17 := 
		0 0 0 0 0 0 26 0 0 0 0 0 0 0 0 0 0 0 0 
		1 0 0 0 0 0 0 0 0 0 23 0 0 0 0 0 0 0 0 
		2 0 0 0 0 0 0 0 0 0 0 24 37 0 0 0 0 21 0 
		3 0 0 0 0 0 0 22 0 0 0 0 0 0 34 0 0 0 0 
		4 0 0 0 0 0 0 25 0 0 0 0 0 0 0 0 0 40 0 
		5 26 0 0 0 0 0 0 0 33 33 0 0 0 0 0 0 20 0 
		6 0 0 0 22 25 0 0 38 0 28 0 0 31 0 40 40 0 0 
		7 0 0 0 0 0 0 38 0 0 0 0 0 0 0 0 0 0 0 
		8 0 0 0 0 0 33 0 0 0 0 0 0 0 0 0 0 0 26 
		9 0 23 0 0 0 33 28 0 0 0 0 0 0 0 0 0 0 0 
		10 0 0 24 0 0 0 0 0 0 0 0 0 0 0 0 0 0 0 
		11 0 0 37 0 0 0 0 0 0 0 0 0 0 35 0 0 0 0 
		12 0 0 0 0 0 0 31 0 0 0 0 0 0 0 0 0 25 0 
		13 0 0 0 34 0 0 0 0 0 0 0 35 0 0 0 0 34 0 
		14 0 0 0 0 0 0 40 0 0 0 0 0 0 0 0 0 0 0 
		15 0 0 0 0 0 0 40 0 0 0 0 0 0 0 0 0 0 0 
		16 0 0 21 0 40 20 0 0 0 0 0 0 25 34 0 0 0 0 
		17 0 0 0 0 0 0 0 0 26 0 0 0 0 0 0 0 0 0 
;
